(declare-fun e () String)
(declare-fun g () String)
(declare-fun d () String)
(declare-fun a () String)
(declare-fun h () String)
(assert (= (str.++ "gf" a "b") (str.++ "e" e)))
(assert (= "e" (str.++ "dg" g "chc")))
(assert (= (str.++ "d" e h d) "h"))

(check-sat)
